(set-info :smt-lib-version 2.6)
(set-logic QF_LRA)
(set-info :source |
Fully parameterized specification and verification of a synchronizer   
circuit modeling metastability at various levels of refinement.     
A paper describing this specification, to be published in Designing     
Correct Circuits (DCC), 2006, is available from the authors.            

Geoffrey Brown, Indiana University <geobrown@cs.indiana.edu>
Lee Pike, Galois Connections, Inc. <leepike@galois.com>

Translated into CVC format by Leonardo de Moura.

This benchmark was automatically translated into SMT-LIB format from
CVC format using CVC Lite

|)
(set-info :category "industrial")
(set-info :status sat)
(declare-fun x_0 () Bool)
(declare-fun x_1 () Bool)
(declare-fun x_2 () Real)
(declare-fun x_3 () Real)
(declare-fun x_4 () Bool)
(declare-fun x_5 () Bool)
(declare-fun x_6 () Real)
(declare-fun x_7 () Real)
(declare-fun x_8 () Bool)
(declare-fun x_9 () Bool)
(declare-fun x_10 () Real)
(declare-fun x_11 () Real)
(declare-fun x_12 () Bool)
(declare-fun x_13 () Bool)
(declare-fun x_14 () Real)
(declare-fun x_15 () Real)
(declare-fun x_16 () Bool)
(declare-fun x_17 () Bool)
(declare-fun x_18 () Real)
(declare-fun x_19 () Real)
(declare-fun x_20 () Bool)
(declare-fun x_21 () Bool)
(declare-fun x_22 () Real)
(declare-fun x_23 () Real)
(declare-fun x_24 () Bool)
(declare-fun x_25 () Bool)
(declare-fun x_26 () Real)
(declare-fun x_27 () Real)
(declare-fun x_28 () Bool)
(declare-fun x_29 () Bool)
(declare-fun x_30 () Real)
(declare-fun x_31 () Real)
(declare-fun x_32 () Bool)
(declare-fun x_33 () Bool)
(declare-fun x_34 () Real)
(declare-fun x_35 () Real)
(declare-fun x_36 () Bool)
(declare-fun x_37 () Bool)
(declare-fun x_38 () Real)
(declare-fun x_39 () Real)
(declare-fun x_40 () Bool)
(declare-fun x_41 () Bool)
(declare-fun x_42 () Real)
(declare-fun x_43 () Real)
(declare-fun x_44 () Bool)
(declare-fun x_45 () Bool)
(declare-fun x_46 () Real)
(declare-fun x_47 () Real)
(declare-fun x_48 () Bool)
(declare-fun x_49 () Bool)
(declare-fun x_50 () Real)
(declare-fun x_51 () Real)
(declare-fun x_52 () Bool)
(declare-fun x_53 () Bool)
(declare-fun x_54 () Real)
(declare-fun x_55 () Real)
(declare-fun x_56 () Bool)
(declare-fun x_57 () Bool)
(declare-fun x_58 () Real)
(declare-fun x_59 () Real)
(declare-fun x_60 () Real)
(declare-fun x_61 () Real)
(declare-fun x_62 () Real)
(declare-fun x_63 () Real)
(declare-fun x_64 () Real)
(declare-fun x_65 () Real)
(declare-fun x_66 () Real)
(declare-fun x_67 () Real)
(declare-fun x_68 () Real)
(declare-fun x_69 () Real)
(declare-fun x_70 () Bool)
(declare-fun x_71 () Bool)
(declare-fun x_72 () Real)
(declare-fun x_73 () Real)
(declare-fun x_74 () Real)
(declare-fun x_75 () Real)
(declare-fun x_76 () Bool)
(declare-fun x_77 () Bool)
(declare-fun x_78 () Bool)
(declare-fun x_79 () Bool)
(declare-fun x_80 () Bool)
(declare-fun x_81 () Real)
(declare-fun x_82 () Bool)
(declare-fun x_83 () Real)
(declare-fun x_84 () Real)
(declare-fun x_85 () Real)
(declare-fun x_86 () Real)
(declare-fun x_87 () Real)
(declare-fun x_88 () Real)
(declare-fun x_89 () Real)
(declare-fun x_90 () Real)
(declare-fun x_91 () Real)
(declare-fun x_92 () Bool)
(declare-fun x_93 () Real)
(declare-fun x_94 () Bool)
(declare-fun x_95 () Bool)
(declare-fun x_96 () Real)
(declare-fun x_97 () Bool)
(declare-fun x_98 () Real)
(declare-fun x_99 () Real)
(declare-fun x_100 () Real)
(declare-fun x_101 () Real)
(declare-fun x_102 () Real)
(declare-fun x_103 () Real)
(declare-fun x_104 () Real)
(declare-fun x_105 () Real)
(declare-fun x_106 () Bool)
(declare-fun x_107 () Real)
(declare-fun x_108 () Bool)
(declare-fun x_109 () Bool)
(declare-fun x_110 () Real)
(declare-fun x_111 () Bool)
(declare-fun x_112 () Real)
(declare-fun x_113 () Real)
(declare-fun x_114 () Real)
(declare-fun x_115 () Real)
(declare-fun x_116 () Real)
(declare-fun x_117 () Real)
(declare-fun x_118 () Real)
(declare-fun x_119 () Real)
(declare-fun x_120 () Bool)
(declare-fun x_121 () Real)
(declare-fun x_122 () Bool)
(declare-fun x_123 () Bool)
(declare-fun x_124 () Real)
(declare-fun x_125 () Bool)
(declare-fun x_126 () Real)
(declare-fun x_127 () Real)
(declare-fun x_128 () Real)
(declare-fun x_129 () Real)
(declare-fun x_130 () Real)
(declare-fun x_131 () Real)
(declare-fun x_132 () Real)
(declare-fun x_133 () Real)
(declare-fun x_134 () Bool)
(declare-fun x_135 () Real)
(declare-fun x_136 () Bool)
(declare-fun x_137 () Bool)
(declare-fun x_138 () Real)
(declare-fun x_139 () Bool)
(declare-fun x_140 () Real)
(declare-fun x_141 () Real)
(declare-fun x_142 () Real)
(declare-fun x_143 () Real)
(declare-fun x_144 () Real)
(declare-fun x_145 () Real)
(declare-fun x_146 () Real)
(declare-fun x_147 () Real)
(declare-fun x_148 () Bool)
(declare-fun x_149 () Real)
(declare-fun x_150 () Bool)
(declare-fun x_151 () Bool)
(declare-fun x_152 () Real)
(declare-fun x_153 () Bool)
(declare-fun x_154 () Real)
(declare-fun x_155 () Real)
(declare-fun x_156 () Real)
(declare-fun x_157 () Real)
(declare-fun x_158 () Real)
(declare-fun x_159 () Real)
(declare-fun x_160 () Real)
(declare-fun x_161 () Real)
(declare-fun x_162 () Bool)
(declare-fun x_163 () Real)
(declare-fun x_164 () Bool)
(declare-fun x_165 () Bool)
(declare-fun x_166 () Real)
(declare-fun x_167 () Bool)
(declare-fun x_168 () Real)
(declare-fun x_169 () Real)
(declare-fun x_170 () Real)
(declare-fun x_171 () Real)
(declare-fun x_172 () Real)
(declare-fun x_173 () Real)
(declare-fun x_174 () Real)
(declare-fun x_175 () Real)
(declare-fun x_176 () Bool)
(declare-fun x_177 () Real)
(declare-fun x_178 () Bool)
(declare-fun x_179 () Bool)
(declare-fun x_180 () Real)
(declare-fun x_181 () Bool)
(declare-fun x_182 () Real)
(declare-fun x_183 () Real)
(declare-fun x_184 () Real)
(declare-fun x_185 () Real)
(declare-fun x_186 () Real)
(declare-fun x_187 () Real)
(declare-fun x_188 () Real)
(declare-fun x_189 () Real)
(declare-fun x_190 () Bool)
(declare-fun x_191 () Real)
(declare-fun x_192 () Bool)
(declare-fun x_193 () Bool)
(declare-fun x_194 () Real)
(declare-fun x_195 () Bool)
(declare-fun x_196 () Real)
(declare-fun x_197 () Real)
(declare-fun x_198 () Real)
(declare-fun x_199 () Real)
(declare-fun x_200 () Real)
(declare-fun x_201 () Real)
(declare-fun x_202 () Real)
(declare-fun x_203 () Real)
(declare-fun x_204 () Bool)
(declare-fun x_205 () Real)
(declare-fun x_206 () Bool)
(declare-fun x_207 () Bool)
(declare-fun x_208 () Real)
(declare-fun x_209 () Bool)
(declare-fun x_210 () Real)
(declare-fun x_211 () Real)
(declare-fun x_212 () Real)
(declare-fun x_213 () Real)
(declare-fun x_214 () Real)
(declare-fun x_215 () Real)
(declare-fun x_216 () Real)
(declare-fun x_217 () Real)
(declare-fun x_218 () Bool)
(declare-fun x_219 () Real)
(declare-fun x_220 () Bool)
(declare-fun x_221 () Bool)
(declare-fun x_222 () Real)
(declare-fun x_223 () Bool)
(declare-fun x_224 () Real)
(declare-fun x_225 () Real)
(declare-fun x_226 () Real)
(declare-fun x_227 () Real)
(declare-fun x_228 () Real)
(declare-fun x_229 () Real)
(declare-fun x_230 () Real)
(declare-fun x_231 () Real)
(declare-fun x_232 () Bool)
(declare-fun x_233 () Real)
(declare-fun x_234 () Bool)
(declare-fun x_235 () Bool)
(declare-fun x_236 () Real)
(declare-fun x_237 () Bool)
(declare-fun x_238 () Real)
(declare-fun x_239 () Real)
(declare-fun x_240 () Real)
(declare-fun x_241 () Real)
(declare-fun x_242 () Real)
(declare-fun x_243 () Real)
(declare-fun x_244 () Real)
(declare-fun x_245 () Real)
(declare-fun x_246 () Bool)
(declare-fun x_247 () Real)
(declare-fun x_248 () Bool)
(declare-fun x_249 () Bool)
(declare-fun x_250 () Real)
(declare-fun x_251 () Bool)
(declare-fun x_252 () Real)
(declare-fun x_253 () Real)
(declare-fun x_254 () Real)
(declare-fun x_255 () Real)
(declare-fun x_256 () Real)
(declare-fun x_257 () Real)
(declare-fun x_258 () Real)
(declare-fun x_259 () Real)
(declare-fun x_260 () Bool)
(declare-fun x_261 () Real)
(declare-fun x_262 () Bool)
(declare-fun x_263 () Bool)
(declare-fun x_264 () Real)
(declare-fun x_265 () Bool)
(declare-fun x_266 () Real)
(declare-fun x_267 () Real)
(declare-fun x_268 () Real)
(declare-fun x_269 () Real)
(declare-fun x_270 () Real)
(declare-fun x_271 () Real)
(declare-fun x_272 () Real)
(declare-fun x_273 () Real)
(declare-fun x_274 () Bool)
(declare-fun x_275 () Real)
(declare-fun x_276 () Real)
(declare-fun x_277 () Bool)
(declare-fun x_278 () Bool)
(declare-fun x_279 () Bool)
(declare-fun x_280 () Bool)
(declare-fun x_281 () Real)
(declare-fun x_282 () Bool)
(declare-fun x_283 () Real)
(declare-fun x_284 () Real)
(declare-fun x_285 () Real)
(declare-fun x_286 () Real)
(assert (let ((?v_188 (= x_60 x_61)) (?v_189 (= x_62 x_63)) (?v_190 (= x_64 x_65)) (?v_186 (= x_66 x_67))) (let ((?v_191 (not ?v_186)) (?v_194 (= x_68 x_69)) (?v_183 (= x_70 x_71)) (?v_184 (= x_7 x_3)) (?v_187 (ite (<= x_62 x_66) x_62 x_66)) (?v_182 (ite (<= x_66 x_62) x_66 x_62)) (?v_175 (= x_87 x_60)) (?v_176 (= x_63 x_88)) (?v_177 (= x_89 x_64)) (?v_173 (= x_67 x_90))) (let ((?v_178 (not ?v_173)) (?v_181 (= x_91 x_68)) (?v_170 (= x_92 x_70)) (?v_171 (= x_11 x_7)) (?v_174 (ite (<= x_63 x_67) x_63 x_67)) (?v_169 (ite (<= x_67 x_63) x_67 x_63)) (?v_162 (= x_101 x_87)) (?v_163 (= x_88 x_102)) (?v_164 (= x_103 x_89)) (?v_160 (= x_90 x_104))) (let ((?v_165 (not ?v_160)) (?v_168 (= x_105 x_91)) (?v_157 (= x_106 x_92)) (?v_158 (= x_15 x_11)) (?v_161 (ite (<= x_88 x_90) x_88 x_90)) (?v_156 (ite (<= x_90 x_88) x_90 x_88)) (?v_149 (= x_115 x_101)) (?v_150 (= x_102 x_116)) (?v_151 (= x_117 x_103)) (?v_147 (= x_104 x_118))) (let ((?v_152 (not ?v_147)) (?v_155 (= x_119 x_105)) (?v_144 (= x_120 x_106)) (?v_145 (= x_19 x_15)) (?v_148 (ite (<= x_102 x_104) x_102 x_104)) (?v_143 (ite (<= x_104 x_102) x_104 x_102)) (?v_136 (= x_129 x_115)) (?v_137 (= x_116 x_130)) (?v_138 (= x_131 x_117)) (?v_134 (= x_118 x_132))) (let ((?v_139 (not ?v_134)) (?v_142 (= x_133 x_119)) (?v_131 (= x_134 x_120)) (?v_132 (= x_23 x_19)) (?v_135 (ite (<= x_116 x_118) x_116 x_118)) (?v_130 (ite (<= x_118 x_116) x_118 x_116)) (?v_123 (= x_143 x_129)) (?v_124 (= x_130 x_144)) (?v_125 (= x_145 x_131)) (?v_121 (= x_132 x_146))) (let ((?v_126 (not ?v_121)) (?v_129 (= x_147 x_133)) (?v_118 (= x_148 x_134)) (?v_119 (= x_27 x_23)) (?v_122 (ite (<= x_130 x_132) x_130 x_132)) (?v_117 (ite (<= x_132 x_130) x_132 x_130)) (?v_110 (= x_157 x_143)) (?v_111 (= x_144 x_158)) (?v_112 (= x_159 x_145)) (?v_108 (= x_146 x_160))) (let ((?v_113 (not ?v_108)) (?v_116 (= x_161 x_147)) (?v_105 (= x_162 x_148)) (?v_106 (= x_31 x_27)) (?v_109 (ite (<= x_144 x_146) x_144 x_146)) (?v_104 (ite (<= x_146 x_144) x_146 x_144)) (?v_97 (= x_171 x_157)) (?v_98 (= x_158 x_172)) (?v_99 (= x_173 x_159)) (?v_95 (= x_160 x_174))) (let ((?v_100 (not ?v_95)) (?v_103 (= x_175 x_161)) (?v_92 (= x_176 x_162)) (?v_93 (= x_35 x_31)) (?v_96 (ite (<= x_158 x_160) x_158 x_160)) (?v_91 (ite (<= x_160 x_158) x_160 x_158)) (?v_84 (= x_185 x_171)) (?v_85 (= x_172 x_186)) (?v_86 (= x_187 x_173)) (?v_82 (= x_174 x_188))) (let ((?v_87 (not ?v_82)) (?v_90 (= x_189 x_175)) (?v_79 (= x_190 x_176)) (?v_80 (= x_39 x_35)) (?v_83 (ite (<= x_172 x_174) x_172 x_174)) (?v_78 (ite (<= x_174 x_172) x_174 x_172)) (?v_71 (= x_199 x_185)) (?v_72 (= x_186 x_200)) (?v_73 (= x_201 x_187)) (?v_69 (= x_188 x_202))) (let ((?v_74 (not ?v_69)) (?v_77 (= x_203 x_189)) (?v_66 (= x_204 x_190)) (?v_67 (= x_43 x_39)) (?v_70 (ite (<= x_186 x_188) x_186 x_188)) (?v_65 (ite (<= x_188 x_186) x_188 x_186)) (?v_58 (= x_213 x_199)) (?v_59 (= x_200 x_214)) (?v_60 (= x_215 x_201)) (?v_56 (= x_202 x_216))) (let ((?v_61 (not ?v_56)) (?v_64 (= x_217 x_203)) (?v_53 (= x_218 x_204)) (?v_54 (= x_47 x_43)) (?v_57 (ite (<= x_200 x_202) x_200 x_202)) (?v_52 (ite (<= x_202 x_200) x_202 x_200)) (?v_45 (= x_227 x_213)) (?v_46 (= x_214 x_228)) (?v_47 (= x_229 x_215)) (?v_43 (= x_216 x_230))) (let ((?v_48 (not ?v_43)) (?v_51 (= x_231 x_217)) (?v_40 (= x_232 x_218)) (?v_41 (= x_51 x_47)) (?v_44 (ite (<= x_214 x_216) x_214 x_216)) (?v_39 (ite (<= x_216 x_214) x_216 x_214)) (?v_32 (= x_241 x_227)) (?v_33 (= x_228 x_242)) (?v_34 (= x_243 x_229)) (?v_30 (= x_230 x_244))) (let ((?v_35 (not ?v_30)) (?v_38 (= x_245 x_231)) (?v_27 (= x_246 x_232)) (?v_28 (= x_55 x_51)) (?v_31 (ite (<= x_228 x_230) x_228 x_230)) (?v_26 (ite (<= x_230 x_228) x_230 x_228)) (?v_19 (= x_255 x_241)) (?v_20 (= x_242 x_256)) (?v_21 (= x_257 x_243)) (?v_17 (= x_244 x_258))) (let ((?v_22 (not ?v_17)) (?v_25 (= x_259 x_245)) (?v_14 (= x_260 x_246)) (?v_15 (= x_59 x_55)) (?v_18 (ite (<= x_242 x_244) x_242 x_244)) (?v_13 (ite (<= x_244 x_242) x_244 x_242)) (?v_6 (= x_269 x_255)) (?v_7 (= x_256 x_270)) (?v_8 (= x_271 x_257)) (?v_4 (= x_258 x_272))) (let ((?v_9 (not ?v_4)) (?v_12 (= x_273 x_259)) (?v_1 (= x_274 x_260)) (?v_2 (= x_275 x_59)) (?v_5 (ite (<= x_256 x_258) x_256 x_258)) (?v_0 (ite (<= x_258 x_256) x_258 x_256)) (?v_3 (= x_278 x_57)) (?v_11 (= x_59 x_275)) (?v_16 (= x_57 x_53)) (?v_24 (= x_55 x_59)) (?v_29 (= x_53 x_49)) (?v_37 (= x_51 x_55)) (?v_42 (= x_49 x_45)) (?v_50 (= x_47 x_51)) (?v_55 (= x_45 x_41)) (?v_63 (= x_43 x_47)) (?v_68 (= x_41 x_37)) (?v_76 (= x_39 x_43)) (?v_81 (= x_37 x_33)) (?v_89 (= x_35 x_39)) (?v_94 (= x_33 x_29)) (?v_102 (= x_31 x_35)) (?v_107 (= x_29 x_25)) (?v_115 (= x_27 x_31)) (?v_120 (= x_25 x_21)) (?v_128 (= x_23 x_27)) (?v_133 (= x_21 x_17)) (?v_141 (= x_19 x_23)) (?v_146 (= x_17 x_13)) (?v_154 (= x_15 x_19)) (?v_159 (= x_13 x_9)) (?v_167 (= x_11 x_15)) (?v_172 (= x_9 x_5)) (?v_180 (= x_7 x_11)) (?v_185 (= x_5 x_1)) (?v_193 (= x_3 x_7))) (let ((?v_10 (+ ?v_5 x_74)) (?v_23 (+ ?v_18 x_74)) (?v_36 (+ ?v_31 x_74)) (?v_49 (+ ?v_44 x_74)) (?v_62 (+ ?v_57 x_74)) (?v_75 (+ ?v_70 x_74)) (?v_88 (+ ?v_83 x_74)) (?v_101 (+ ?v_96 x_74)) (?v_114 (+ ?v_109 x_74)) (?v_127 (+ ?v_122 x_74)) (?v_140 (+ ?v_135 x_74)) (?v_153 (+ ?v_148 x_74)) (?v_166 (+ ?v_161 x_74)) (?v_179 (+ ?v_174 x_74)) (?v_192 (+ ?v_187 x_74))) (and (and (and (and (and (and (and (and (and (and (and (and (and (and (and (and (and (and (and (and (and (and (and (and (and (and (and (and (and (and (and (and (and (and (and (and (and (and (and (and (and (and (and (and (and (and (and (and (and (and (and (and (and (and (and (and (and (and (and (and (and (and (and (and (and (and (and (and (and (and (and (and (and (and (and (and (and (and (and (and (and (and (and (and (> x_72 0) (> x_73 0)) (>= x_74 0)) (< x_74 x_72)) (< x_74 x_73)) (>= x_85 0)) (< x_85 x_72)) (< x_85 x_73)) (or (= x_56 x_57) (= x_58 x_59))) (or (= x_52 x_53) (= x_54 x_55))) (or (= x_48 x_49) (= x_50 x_51))) (or (= x_44 x_45) (= x_46 x_47))) (or (= x_40 x_41) (= x_42 x_43))) (or (= x_36 x_37) (= x_38 x_39))) (or (= x_32 x_33) (= x_34 x_35))) (or (= x_28 x_29) (= x_30 x_31))) (or (= x_24 x_25) (= x_26 x_27))) (or (= x_20 x_21) (= x_22 x_23))) (or (= x_16 x_17) (= x_18 x_19))) (or (= x_12 x_13) (= x_14 x_15))) (or (= x_8 x_9) (= x_10 x_11))) (or (= x_4 x_5) (= x_6 x_7))) (or (= x_0 x_1) (= x_2 x_3))) (or (and (and (and (and (and (and (and (and (and (= x_276 0) (= x_277 x_265)) (= ?v_0 x_258)) (<= (+ ?v_0 x_72) x_272)) (or ?v_3 (= x_278 x_56))) (= x_279 x_262)) (= x_280 x_263)) (= x_270 x_256)) ?v_1) ?v_2) (and (and (and (and (and (and (and (and (and (= x_276 1) (= x_280 x_262)) (= ?v_0 x_256)) (<= (+ ?v_0 x_73) x_270)) (or (and (and (= x_281 0) ?v_1) ?v_2) (and (and (= x_281 1) (= x_260 x_263)) (= x_274 (not x_260))))) (= x_282 x_265)) (= x_277 x_56)) (= x_283 x_58)) (= x_272 x_258)) ?v_3))) (or (or (and (and (and (= x_284 0) ?v_9) (or (not (<= x_255 ?v_5)) (= x_282 x_260))) ?v_6) (and (and (and (= x_284 1) ?v_4) (xor x_260 x_274)) (= x_269 ?v_10))) (and (and (and (= x_284 2) ?v_4) (= x_260 x_274)) ?v_6))) (or (or (and (and (and (= x_285 0) (not ?v_7)) (or (not (<= x_257 ?v_0)) (= x_279 x_57))) ?v_8) (and (and (and (= x_285 1) ?v_7) (xor x_57 x_278)) (= x_271 (+ ?v_0 x_85)))) (and (and (and (= x_285 2) ?v_7) (= x_57 x_278)) ?v_8))) (or (or (and (and (and (= x_286 0) ?v_9) (or (not (<= x_259 ?v_5)) (= x_283 x_59))) ?v_12) (and (and (and (= x_286 1) ?v_4) (not ?v_11)) (= x_273 ?v_10))) (and (and (and (= x_286 2) ?v_4) ?v_11) ?v_12))) (or (and (and (and (and (and (and (and (and (and (= x_261 0) (= x_56 x_251)) (= ?v_13 x_244)) (<= (+ ?v_13 x_72) x_258)) (or ?v_16 (= x_57 x_52))) (= x_262 x_248)) (= x_263 x_249)) (= x_256 x_242)) ?v_14) ?v_15) (and (and (and (and (and (and (and (and (and (= x_261 1) (= x_263 x_248)) (= ?v_13 x_242)) (<= (+ ?v_13 x_73) x_256)) (or (and (and (= x_264 0) ?v_14) ?v_15) (and (and (= x_264 1) (= x_246 x_249)) (= x_260 (not x_246))))) (= x_265 x_251)) (= x_56 x_52)) (= x_58 x_54)) (= x_258 x_244)) ?v_16))) (or (or (and (and (and (= x_266 0) ?v_22) (or (not (<= x_241 ?v_18)) (= x_265 x_246))) ?v_19) (and (and (and (= x_266 1) ?v_17) (xor x_246 x_260)) (= x_255 ?v_23))) (and (and (and (= x_266 2) ?v_17) (= x_246 x_260)) ?v_19))) (or (or (and (and (and (= x_267 0) (not ?v_20)) (or (not (<= x_243 ?v_13)) (= x_262 x_53))) ?v_21) (and (and (and (= x_267 1) ?v_20) (xor x_53 x_57)) (= x_257 (+ ?v_13 x_85)))) (and (and (and (= x_267 2) ?v_20) (= x_53 x_57)) ?v_21))) (or (or (and (and (and (= x_268 0) ?v_22) (or (not (<= x_245 ?v_18)) (= x_58 x_55))) ?v_25) (and (and (and (= x_268 1) ?v_17) (not ?v_24)) (= x_259 ?v_23))) (and (and (and (= x_268 2) ?v_17) ?v_24) ?v_25))) (or (and (and (and (and (and (and (and (and (and (= x_247 0) (= x_52 x_237)) (= ?v_26 x_230)) (<= (+ ?v_26 x_72) x_244)) (or ?v_29 (= x_53 x_48))) (= x_248 x_234)) (= x_249 x_235)) (= x_242 x_228)) ?v_27) ?v_28) (and (and (and (and (and (and (and (and (and (= x_247 1) (= x_249 x_234)) (= ?v_26 x_228)) (<= (+ ?v_26 x_73) x_242)) (or (and (and (= x_250 0) ?v_27) ?v_28) (and (and (= x_250 1) (= x_232 x_235)) (= x_246 (not x_232))))) (= x_251 x_237)) (= x_52 x_48)) (= x_54 x_50)) (= x_244 x_230)) ?v_29))) (or (or (and (and (and (= x_252 0) ?v_35) (or (not (<= x_227 ?v_31)) (= x_251 x_232))) ?v_32) (and (and (and (= x_252 1) ?v_30) (xor x_232 x_246)) (= x_241 ?v_36))) (and (and (and (= x_252 2) ?v_30) (= x_232 x_246)) ?v_32))) (or (or (and (and (and (= x_253 0) (not ?v_33)) (or (not (<= x_229 ?v_26)) (= x_248 x_49))) ?v_34) (and (and (and (= x_253 1) ?v_33) (xor x_49 x_53)) (= x_243 (+ ?v_26 x_85)))) (and (and (and (= x_253 2) ?v_33) (= x_49 x_53)) ?v_34))) (or (or (and (and (and (= x_254 0) ?v_35) (or (not (<= x_231 ?v_31)) (= x_54 x_51))) ?v_38) (and (and (and (= x_254 1) ?v_30) (not ?v_37)) (= x_245 ?v_36))) (and (and (and (= x_254 2) ?v_30) ?v_37) ?v_38))) (or (and (and (and (and (and (and (and (and (and (= x_233 0) (= x_48 x_223)) (= ?v_39 x_216)) (<= (+ ?v_39 x_72) x_230)) (or ?v_42 (= x_49 x_44))) (= x_234 x_220)) (= x_235 x_221)) (= x_228 x_214)) ?v_40) ?v_41) (and (and (and (and (and (and (and (and (and (= x_233 1) (= x_235 x_220)) (= ?v_39 x_214)) (<= (+ ?v_39 x_73) x_228)) (or (and (and (= x_236 0) ?v_40) ?v_41) (and (and (= x_236 1) (= x_218 x_221)) (= x_232 (not x_218))))) (= x_237 x_223)) (= x_48 x_44)) (= x_50 x_46)) (= x_230 x_216)) ?v_42))) (or (or (and (and (and (= x_238 0) ?v_48) (or (not (<= x_213 ?v_44)) (= x_237 x_218))) ?v_45) (and (and (and (= x_238 1) ?v_43) (xor x_218 x_232)) (= x_227 ?v_49))) (and (and (and (= x_238 2) ?v_43) (= x_218 x_232)) ?v_45))) (or (or (and (and (and (= x_239 0) (not ?v_46)) (or (not (<= x_215 ?v_39)) (= x_234 x_45))) ?v_47) (and (and (and (= x_239 1) ?v_46) (xor x_45 x_49)) (= x_229 (+ ?v_39 x_85)))) (and (and (and (= x_239 2) ?v_46) (= x_45 x_49)) ?v_47))) (or (or (and (and (and (= x_240 0) ?v_48) (or (not (<= x_217 ?v_44)) (= x_50 x_47))) ?v_51) (and (and (and (= x_240 1) ?v_43) (not ?v_50)) (= x_231 ?v_49))) (and (and (and (= x_240 2) ?v_43) ?v_50) ?v_51))) (or (and (and (and (and (and (and (and (and (and (= x_219 0) (= x_44 x_209)) (= ?v_52 x_202)) (<= (+ ?v_52 x_72) x_216)) (or ?v_55 (= x_45 x_40))) (= x_220 x_206)) (= x_221 x_207)) (= x_214 x_200)) ?v_53) ?v_54) (and (and (and (and (and (and (and (and (and (= x_219 1) (= x_221 x_206)) (= ?v_52 x_200)) (<= (+ ?v_52 x_73) x_214)) (or (and (and (= x_222 0) ?v_53) ?v_54) (and (and (= x_222 1) (= x_204 x_207)) (= x_218 (not x_204))))) (= x_223 x_209)) (= x_44 x_40)) (= x_46 x_42)) (= x_216 x_202)) ?v_55))) (or (or (and (and (and (= x_224 0) ?v_61) (or (not (<= x_199 ?v_57)) (= x_223 x_204))) ?v_58) (and (and (and (= x_224 1) ?v_56) (xor x_204 x_218)) (= x_213 ?v_62))) (and (and (and (= x_224 2) ?v_56) (= x_204 x_218)) ?v_58))) (or (or (and (and (and (= x_225 0) (not ?v_59)) (or (not (<= x_201 ?v_52)) (= x_220 x_41))) ?v_60) (and (and (and (= x_225 1) ?v_59) (xor x_41 x_45)) (= x_215 (+ ?v_52 x_85)))) (and (and (and (= x_225 2) ?v_59) (= x_41 x_45)) ?v_60))) (or (or (and (and (and (= x_226 0) ?v_61) (or (not (<= x_203 ?v_57)) (= x_46 x_43))) ?v_64) (and (and (and (= x_226 1) ?v_56) (not ?v_63)) (= x_217 ?v_62))) (and (and (and (= x_226 2) ?v_56) ?v_63) ?v_64))) (or (and (and (and (and (and (and (and (and (and (= x_205 0) (= x_40 x_195)) (= ?v_65 x_188)) (<= (+ ?v_65 x_72) x_202)) (or ?v_68 (= x_41 x_36))) (= x_206 x_192)) (= x_207 x_193)) (= x_200 x_186)) ?v_66) ?v_67) (and (and (and (and (and (and (and (and (and (= x_205 1) (= x_207 x_192)) (= ?v_65 x_186)) (<= (+ ?v_65 x_73) x_200)) (or (and (and (= x_208 0) ?v_66) ?v_67) (and (and (= x_208 1) (= x_190 x_193)) (= x_204 (not x_190))))) (= x_209 x_195)) (= x_40 x_36)) (= x_42 x_38)) (= x_202 x_188)) ?v_68))) (or (or (and (and (and (= x_210 0) ?v_74) (or (not (<= x_185 ?v_70)) (= x_209 x_190))) ?v_71) (and (and (and (= x_210 1) ?v_69) (xor x_190 x_204)) (= x_199 ?v_75))) (and (and (and (= x_210 2) ?v_69) (= x_190 x_204)) ?v_71))) (or (or (and (and (and (= x_211 0) (not ?v_72)) (or (not (<= x_187 ?v_65)) (= x_206 x_37))) ?v_73) (and (and (and (= x_211 1) ?v_72) (xor x_37 x_41)) (= x_201 (+ ?v_65 x_85)))) (and (and (and (= x_211 2) ?v_72) (= x_37 x_41)) ?v_73))) (or (or (and (and (and (= x_212 0) ?v_74) (or (not (<= x_189 ?v_70)) (= x_42 x_39))) ?v_77) (and (and (and (= x_212 1) ?v_69) (not ?v_76)) (= x_203 ?v_75))) (and (and (and (= x_212 2) ?v_69) ?v_76) ?v_77))) (or (and (and (and (and (and (and (and (and (and (= x_191 0) (= x_36 x_181)) (= ?v_78 x_174)) (<= (+ ?v_78 x_72) x_188)) (or ?v_81 (= x_37 x_32))) (= x_192 x_178)) (= x_193 x_179)) (= x_186 x_172)) ?v_79) ?v_80) (and (and (and (and (and (and (and (and (and (= x_191 1) (= x_193 x_178)) (= ?v_78 x_172)) (<= (+ ?v_78 x_73) x_186)) (or (and (and (= x_194 0) ?v_79) ?v_80) (and (and (= x_194 1) (= x_176 x_179)) (= x_190 (not x_176))))) (= x_195 x_181)) (= x_36 x_32)) (= x_38 x_34)) (= x_188 x_174)) ?v_81))) (or (or (and (and (and (= x_196 0) ?v_87) (or (not (<= x_171 ?v_83)) (= x_195 x_176))) ?v_84) (and (and (and (= x_196 1) ?v_82) (xor x_176 x_190)) (= x_185 ?v_88))) (and (and (and (= x_196 2) ?v_82) (= x_176 x_190)) ?v_84))) (or (or (and (and (and (= x_197 0) (not ?v_85)) (or (not (<= x_173 ?v_78)) (= x_192 x_33))) ?v_86) (and (and (and (= x_197 1) ?v_85) (xor x_33 x_37)) (= x_187 (+ ?v_78 x_85)))) (and (and (and (= x_197 2) ?v_85) (= x_33 x_37)) ?v_86))) (or (or (and (and (and (= x_198 0) ?v_87) (or (not (<= x_175 ?v_83)) (= x_38 x_35))) ?v_90) (and (and (and (= x_198 1) ?v_82) (not ?v_89)) (= x_189 ?v_88))) (and (and (and (= x_198 2) ?v_82) ?v_89) ?v_90))) (or (and (and (and (and (and (and (and (and (and (= x_177 0) (= x_32 x_167)) (= ?v_91 x_160)) (<= (+ ?v_91 x_72) x_174)) (or ?v_94 (= x_33 x_28))) (= x_178 x_164)) (= x_179 x_165)) (= x_172 x_158)) ?v_92) ?v_93) (and (and (and (and (and (and (and (and (and (= x_177 1) (= x_179 x_164)) (= ?v_91 x_158)) (<= (+ ?v_91 x_73) x_172)) (or (and (and (= x_180 0) ?v_92) ?v_93) (and (and (= x_180 1) (= x_162 x_165)) (= x_176 (not x_162))))) (= x_181 x_167)) (= x_32 x_28)) (= x_34 x_30)) (= x_174 x_160)) ?v_94))) (or (or (and (and (and (= x_182 0) ?v_100) (or (not (<= x_157 ?v_96)) (= x_181 x_162))) ?v_97) (and (and (and (= x_182 1) ?v_95) (xor x_162 x_176)) (= x_171 ?v_101))) (and (and (and (= x_182 2) ?v_95) (= x_162 x_176)) ?v_97))) (or (or (and (and (and (= x_183 0) (not ?v_98)) (or (not (<= x_159 ?v_91)) (= x_178 x_29))) ?v_99) (and (and (and (= x_183 1) ?v_98) (xor x_29 x_33)) (= x_173 (+ ?v_91 x_85)))) (and (and (and (= x_183 2) ?v_98) (= x_29 x_33)) ?v_99))) (or (or (and (and (and (= x_184 0) ?v_100) (or (not (<= x_161 ?v_96)) (= x_34 x_31))) ?v_103) (and (and (and (= x_184 1) ?v_95) (not ?v_102)) (= x_175 ?v_101))) (and (and (and (= x_184 2) ?v_95) ?v_102) ?v_103))) (or (and (and (and (and (and (and (and (and (and (= x_163 0) (= x_28 x_153)) (= ?v_104 x_146)) (<= (+ ?v_104 x_72) x_160)) (or ?v_107 (= x_29 x_24))) (= x_164 x_150)) (= x_165 x_151)) (= x_158 x_144)) ?v_105) ?v_106) (and (and (and (and (and (and (and (and (and (= x_163 1) (= x_165 x_150)) (= ?v_104 x_144)) (<= (+ ?v_104 x_73) x_158)) (or (and (and (= x_166 0) ?v_105) ?v_106) (and (and (= x_166 1) (= x_148 x_151)) (= x_162 (not x_148))))) (= x_167 x_153)) (= x_28 x_24)) (= x_30 x_26)) (= x_160 x_146)) ?v_107))) (or (or (and (and (and (= x_168 0) ?v_113) (or (not (<= x_143 ?v_109)) (= x_167 x_148))) ?v_110) (and (and (and (= x_168 1) ?v_108) (xor x_148 x_162)) (= x_157 ?v_114))) (and (and (and (= x_168 2) ?v_108) (= x_148 x_162)) ?v_110))) (or (or (and (and (and (= x_169 0) (not ?v_111)) (or (not (<= x_145 ?v_104)) (= x_164 x_25))) ?v_112) (and (and (and (= x_169 1) ?v_111) (xor x_25 x_29)) (= x_159 (+ ?v_104 x_85)))) (and (and (and (= x_169 2) ?v_111) (= x_25 x_29)) ?v_112))) (or (or (and (and (and (= x_170 0) ?v_113) (or (not (<= x_147 ?v_109)) (= x_30 x_27))) ?v_116) (and (and (and (= x_170 1) ?v_108) (not ?v_115)) (= x_161 ?v_114))) (and (and (and (= x_170 2) ?v_108) ?v_115) ?v_116))) (or (and (and (and (and (and (and (and (and (and (= x_149 0) (= x_24 x_139)) (= ?v_117 x_132)) (<= (+ ?v_117 x_72) x_146)) (or ?v_120 (= x_25 x_20))) (= x_150 x_136)) (= x_151 x_137)) (= x_144 x_130)) ?v_118) ?v_119) (and (and (and (and (and (and (and (and (and (= x_149 1) (= x_151 x_136)) (= ?v_117 x_130)) (<= (+ ?v_117 x_73) x_144)) (or (and (and (= x_152 0) ?v_118) ?v_119) (and (and (= x_152 1) (= x_134 x_137)) (= x_148 (not x_134))))) (= x_153 x_139)) (= x_24 x_20)) (= x_26 x_22)) (= x_146 x_132)) ?v_120))) (or (or (and (and (and (= x_154 0) ?v_126) (or (not (<= x_129 ?v_122)) (= x_153 x_134))) ?v_123) (and (and (and (= x_154 1) ?v_121) (xor x_134 x_148)) (= x_143 ?v_127))) (and (and (and (= x_154 2) ?v_121) (= x_134 x_148)) ?v_123))) (or (or (and (and (and (= x_155 0) (not ?v_124)) (or (not (<= x_131 ?v_117)) (= x_150 x_21))) ?v_125) (and (and (and (= x_155 1) ?v_124) (xor x_21 x_25)) (= x_145 (+ ?v_117 x_85)))) (and (and (and (= x_155 2) ?v_124) (= x_21 x_25)) ?v_125))) (or (or (and (and (and (= x_156 0) ?v_126) (or (not (<= x_133 ?v_122)) (= x_26 x_23))) ?v_129) (and (and (and (= x_156 1) ?v_121) (not ?v_128)) (= x_147 ?v_127))) (and (and (and (= x_156 2) ?v_121) ?v_128) ?v_129))) (or (and (and (and (and (and (and (and (and (and (= x_135 0) (= x_20 x_125)) (= ?v_130 x_118)) (<= (+ ?v_130 x_72) x_132)) (or ?v_133 (= x_21 x_16))) (= x_136 x_122)) (= x_137 x_123)) (= x_130 x_116)) ?v_131) ?v_132) (and (and (and (and (and (and (and (and (and (= x_135 1) (= x_137 x_122)) (= ?v_130 x_116)) (<= (+ ?v_130 x_73) x_130)) (or (and (and (= x_138 0) ?v_131) ?v_132) (and (and (= x_138 1) (= x_120 x_123)) (= x_134 (not x_120))))) (= x_139 x_125)) (= x_20 x_16)) (= x_22 x_18)) (= x_132 x_118)) ?v_133))) (or (or (and (and (and (= x_140 0) ?v_139) (or (not (<= x_115 ?v_135)) (= x_139 x_120))) ?v_136) (and (and (and (= x_140 1) ?v_134) (xor x_120 x_134)) (= x_129 ?v_140))) (and (and (and (= x_140 2) ?v_134) (= x_120 x_134)) ?v_136))) (or (or (and (and (and (= x_141 0) (not ?v_137)) (or (not (<= x_117 ?v_130)) (= x_136 x_17))) ?v_138) (and (and (and (= x_141 1) ?v_137) (xor x_17 x_21)) (= x_131 (+ ?v_130 x_85)))) (and (and (and (= x_141 2) ?v_137) (= x_17 x_21)) ?v_138))) (or (or (and (and (and (= x_142 0) ?v_139) (or (not (<= x_119 ?v_135)) (= x_22 x_19))) ?v_142) (and (and (and (= x_142 1) ?v_134) (not ?v_141)) (= x_133 ?v_140))) (and (and (and (= x_142 2) ?v_134) ?v_141) ?v_142))) (or (and (and (and (and (and (and (and (and (and (= x_121 0) (= x_16 x_111)) (= ?v_143 x_104)) (<= (+ ?v_143 x_72) x_118)) (or ?v_146 (= x_17 x_12))) (= x_122 x_108)) (= x_123 x_109)) (= x_116 x_102)) ?v_144) ?v_145) (and (and (and (and (and (and (and (and (and (= x_121 1) (= x_123 x_108)) (= ?v_143 x_102)) (<= (+ ?v_143 x_73) x_116)) (or (and (and (= x_124 0) ?v_144) ?v_145) (and (and (= x_124 1) (= x_106 x_109)) (= x_120 (not x_106))))) (= x_125 x_111)) (= x_16 x_12)) (= x_18 x_14)) (= x_118 x_104)) ?v_146))) (or (or (and (and (and (= x_126 0) ?v_152) (or (not (<= x_101 ?v_148)) (= x_125 x_106))) ?v_149) (and (and (and (= x_126 1) ?v_147) (xor x_106 x_120)) (= x_115 ?v_153))) (and (and (and (= x_126 2) ?v_147) (= x_106 x_120)) ?v_149))) (or (or (and (and (and (= x_127 0) (not ?v_150)) (or (not (<= x_103 ?v_143)) (= x_122 x_13))) ?v_151) (and (and (and (= x_127 1) ?v_150) (xor x_13 x_17)) (= x_117 (+ ?v_143 x_85)))) (and (and (and (= x_127 2) ?v_150) (= x_13 x_17)) ?v_151))) (or (or (and (and (and (= x_128 0) ?v_152) (or (not (<= x_105 ?v_148)) (= x_18 x_15))) ?v_155) (and (and (and (= x_128 1) ?v_147) (not ?v_154)) (= x_119 ?v_153))) (and (and (and (= x_128 2) ?v_147) ?v_154) ?v_155))) (or (and (and (and (and (and (and (and (and (and (= x_107 0) (= x_12 x_97)) (= ?v_156 x_90)) (<= (+ ?v_156 x_72) x_104)) (or ?v_159 (= x_13 x_8))) (= x_108 x_94)) (= x_109 x_95)) (= x_102 x_88)) ?v_157) ?v_158) (and (and (and (and (and (and (and (and (and (= x_107 1) (= x_109 x_94)) (= ?v_156 x_88)) (<= (+ ?v_156 x_73) x_102)) (or (and (and (= x_110 0) ?v_157) ?v_158) (and (and (= x_110 1) (= x_92 x_95)) (= x_106 (not x_92))))) (= x_111 x_97)) (= x_12 x_8)) (= x_14 x_10)) (= x_104 x_90)) ?v_159))) (or (or (and (and (and (= x_112 0) ?v_165) (or (not (<= x_87 ?v_161)) (= x_111 x_92))) ?v_162) (and (and (and (= x_112 1) ?v_160) (xor x_92 x_106)) (= x_101 ?v_166))) (and (and (and (= x_112 2) ?v_160) (= x_92 x_106)) ?v_162))) (or (or (and (and (and (= x_113 0) (not ?v_163)) (or (not (<= x_89 ?v_156)) (= x_108 x_9))) ?v_164) (and (and (and (= x_113 1) ?v_163) (xor x_9 x_13)) (= x_103 (+ ?v_156 x_85)))) (and (and (and (= x_113 2) ?v_163) (= x_9 x_13)) ?v_164))) (or (or (and (and (and (= x_114 0) ?v_165) (or (not (<= x_91 ?v_161)) (= x_14 x_11))) ?v_168) (and (and (and (= x_114 1) ?v_160) (not ?v_167)) (= x_105 ?v_166))) (and (and (and (= x_114 2) ?v_160) ?v_167) ?v_168))) (or (and (and (and (and (and (and (and (and (and (= x_93 0) (= x_8 x_82)) (= ?v_169 x_67)) (<= (+ ?v_169 x_72) x_90)) (or ?v_172 (= x_9 x_4))) (= x_94 x_77)) (= x_95 x_79)) (= x_88 x_63)) ?v_170) ?v_171) (and (and (and (and (and (and (and (and (and (= x_93 1) (= x_95 x_77)) (= ?v_169 x_63)) (<= (+ ?v_169 x_73) x_88)) (or (and (and (= x_96 0) ?v_170) ?v_171) (and (and (= x_96 1) (= x_70 x_79)) (= x_92 (not x_70))))) (= x_97 x_82)) (= x_8 x_4)) (= x_10 x_6)) (= x_90 x_67)) ?v_172))) (or (or (and (and (and (= x_98 0) ?v_178) (or (not (<= x_60 ?v_174)) (= x_97 x_70))) ?v_175) (and (and (and (= x_98 1) ?v_173) (xor x_70 x_92)) (= x_87 ?v_179))) (and (and (and (= x_98 2) ?v_173) (= x_70 x_92)) ?v_175))) (or (or (and (and (and (= x_99 0) (not ?v_176)) (or (not (<= x_64 ?v_169)) (= x_94 x_5))) ?v_177) (and (and (and (= x_99 1) ?v_176) (xor x_5 x_9)) (= x_89 (+ ?v_169 x_85)))) (and (and (and (= x_99 2) ?v_176) (= x_5 x_9)) ?v_177))) (or (or (and (and (and (= x_100 0) ?v_178) (or (not (<= x_68 ?v_174)) (= x_10 x_7))) ?v_181) (and (and (and (= x_100 1) ?v_173) (not ?v_180)) (= x_91 ?v_179))) (and (and (and (= x_100 2) ?v_173) ?v_180) ?v_181))) (or (and (and (and (and (and (and (and (and (and (= x_75 0) (= x_4 x_76)) (= ?v_182 x_66)) (<= (+ ?v_182 x_72) x_67)) (or ?v_185 (= x_5 x_0))) (= x_77 x_78)) (= x_79 x_80)) (= x_63 x_62)) ?v_183) ?v_184) (and (and (and (and (and (and (and (and (and (= x_75 1) (= x_79 x_78)) (= ?v_182 x_62)) (<= (+ ?v_182 x_73) x_63)) (or (and (and (= x_81 0) ?v_183) ?v_184) (and (and (= x_81 1) (= x_71 x_80)) (= x_70 (not x_71))))) (= x_82 x_76)) (= x_4 x_0)) (= x_6 x_2)) (= x_67 x_66)) ?v_185))) (or (or (and (and (and (= x_83 0) ?v_191) (or (not (<= x_61 ?v_187)) (= x_82 x_71))) ?v_188) (and (and (and (= x_83 1) ?v_186) (xor x_71 x_70)) (= x_60 ?v_192))) (and (and (and (= x_83 2) ?v_186) (= x_71 x_70)) ?v_188))) (or (or (and (and (and (= x_84 0) (not ?v_189)) (or (not (<= x_65 ?v_182)) (= x_77 x_1))) ?v_190) (and (and (and (= x_84 1) ?v_189) (xor x_1 x_5)) (= x_64 (+ ?v_182 x_85)))) (and (and (and (= x_84 2) ?v_189) (= x_1 x_5)) ?v_190))) (or (or (and (and (and (= x_86 0) ?v_191) (or (not (<= x_69 ?v_187)) (= x_6 x_3))) ?v_194) (and (and (and (= x_86 1) ?v_186) (not ?v_193)) (= x_68 ?v_192))) (and (and (and (= x_86 2) ?v_186) ?v_193) ?v_194))) (xor x_277 x_278)) (not (= x_283 x_275)))))))))))))))))))))
(check-sat)
(exit)
